dynamic_tsp/liczby
2
0 23 
26 0 
