dynamic_tsp/liczby.txt
9
0 45 16 38 68 50 26 34 44 
67 0 2 25 42 97 12 8 55 
48 63 0 42 68 21 19 20 85 
58 75 94 0 95 16 50 48 37 
15 50 62 53 0 27 49 47 12 
23 95 48 55 35 0 24 36 20 
73 82 35 38 23 49 0 39 96 
82 35 38 51 99 18 14 0 10 
55 56 10 81 80 61 34 73 0 
